# Solution for model cur_assignment
# Objective value = 4.3771518054773304e+02
Assign[0,0] 1
Assign[1,0] 1
Assign[2,0] 1
Assign[3,0] 1
Assign[4,0] 1
Assign[5,0] 1
Assign[6,0] 1
Assign[7,0] 1
Assign[8,0] 1
Assign[9,0] 1
Assign[10,0] 1
Assign[11,0] 1
Assign[12,0] 1
Assign[13,0] 1
Assign[14,0] 1
Assign[15,0] 1
Assign[16,0] 1
Assign[17,0] 1
Assign[18,0] 1
Assign[19,0] 1
Assign[20,0] 1
Assign[21,0] 1
Assign[22,0] 1
Assign[23,0] 1
Assign[24,0] 1
Assign[25,0] 1
Assign[26,0] 1
Assign[27,0] 1
Assign[28,0] 1
Assign[29,0] 1
Assign[30,0] 1
Assign[31,0] 1
Assign[32,0] 1
Assign[33,0] 1
Assign[34,0] 1
Assign[35,0] 1
Assign[36,0] 1
Assign[37,0] 1
Assign[38,0] 1
Assign[39,0] 1
Assign[40,0] 1
Assign[41,0] 1
Assign[42,0] 1
Assign[43,0] 1
Assign[44,0] 1
Assign[45,0] 1
Assign[46,0] 1
Assign[47,0] 1
Assign[48,0] 1
Assign[49,0] 1
Assign[50,0] 1
Assign[51,0] 1
Assign[52,0] 1
Assign[53,0] 1
Assign[54,0] 1
Assign[55,0] 1
Assign[56,0] 1
Assign[57,0] 1
Assign[58,0] 1
Assign[59,0] 1
